\* Problem: Unknown *\

Maximize
 obj: + xp_0_0 + xp_0_1 + xp_0_2 + xp_0_3 + xp_0_4 + xp_0_5 + xp_0_6
 + xp_1_0 + xp_1_1 + xp_2_0 + xp_2_1 + xp_2_2 + xp_2_3 + xp_2_4 + xp_3_0
 + xp_3_1 + xp_3_2 + xp_4_0 + xp_5_0 + xp_5_1 + xp_5_2 + xp_6_0 + xp_6_1
 + xp_6_2 + xp_7_0 + xp_7_1 + xp_8_0 + xp_9_0 + xp_10_0 + xp_11_0
 + xp_11_1 + xp_11_2 + xp_11_3 + xp_11_4 + xp_12_0 + xp_13_0 + xp_13_1
 + xp_14_0 + xp_14_1 + xp_15_0 + xp_16_0 + xp_17_0 + xp_17_1 + xp_17_2
 + xp_17_3 + xp_18_0 + xp_18_1 + xp_18_2 + xp_18_3 + xp_19_0 + xp_19_1
 + xp_19_2 + xp_19_3 + xp_20_0 + xp_20_1 + xp_20_2 + xp_20_3 + xp_21_0
 + xp_21_1 + xp_21_2 + xp_21_3 + xp_21_4 + xp_22_0 + xp_22_1 + xp_22_2
 + xp_22_3 + xp_22_4 + xp_23_0 + xp_23_1 + xp_23_2

Subject To
 r_1: 0 xp_0_0 <= 30
 r_2: + xp_18_3 + xp_5_1 + xp_2_3 <= 29.4574468085106
 r_3: + xp_23_2 + xp_21_4 + xp_18_2 <= 30
 r_4: + xp_17_3 + xp_15_0 + xp_0_4 <= 30
 r_5: + xp_18_0 <= 28.6290322580645
 r_6: + xp_18_1 <= 30
 r_7: + xp_20_3 <= 30
 r_8: + xp_11_3 + xp_6_2 + xp_5_2 + xp_3_2 + xp_2_1 <= 29.4574468085106
 r_9: + xp_11_1 + xp_3_1 <= 30
 r_10: + xp_17_2 + xp_3_0 <= 30
 r_11: + xp_18_1 + xp_11_2 <= 28.6290322580645
 r_12: + xp_11_0 <= 30
 r_13: + xp_11_4 <= 30
 r_14: + xp_21_2 + xp_14_0 + xp_0_3 + xp_0_1 <= 29.4574468085106
 r_15: + xp_21_0 + xp_19_3 <= 30
 r_16: + xp_22_2 + xp_21_1 + xp_0_5 + xp_0_2 <= 30
 r_17: + xp_0_0 <= 28.6290322580645
 r_18: + xp_21_4 + xp_4_0 + xp_0_4 <= 30
 r_19: + xp_19_0 <= 30
 r_20: + xp_21_3 + xp_19_2 + xp_19_1 + xp_14_1 + xp_0_6 <= 30
 r_21: + xp_20_1 <= 29.4574468085106
 r_22: + xp_21_2 + xp_7_1 <= 29.4574468085106
 r_23: + xp_22_3 <= 29.4574468085106
 r_24: + xp_6_2 + xp_6_1 + xp_3_2 + xp_0_3 <= 29.4574468085106
 r_25: 0 xp_0_0 <= 29.4574468085106
 r_26: + xp_18_3 + xp_0_6 + xp_0_1 <= 28.6290322580645
 r_27: + xp_11_4 + xp_11_3 <= 29.4574468085106
 r_28: + xp_19_2 <= 29.4574468085106
 r_29: + xp_20_2 <= 30
 r_30: + xp_2_0 <= 29.4574468085106
 r_31: + xp_23_2 + xp_18_2 + xp_3_1 + xp_2_4 <= 30
 r_32: + xp_2_2 <= 30
 r_33: + xp_11_1 + xp_2_3 <= 30
 r_34: + xp_19_3 + xp_2_1 <= 30
 r_35: 0 xp_0_0 <= 30
 r_36: + xp_9_0 <= 29.4574468085106
 r_37: + xp_21_1 + xp_13_1 <= 30
 r_38: + xp_1_1 <= 30
 r_39: + xp_17_1 + xp_0_5 <= 30
 r_40: + xp_0_2 <= 28.6290322580645
 r_41: + xp_12_0 + xp_2_4 <= 29.4574468085106
 r_42: + xp_21_1 <= 30
 r_43: + xp_16_0 <= 30
 r_44: + xp_23_2 + xp_23_1 + xp_22_4 <= 30
 r_45: + xp_3_2 + xp_3_1 <= 30
 r_46: + xp_18_2 + xp_0_3 <= 28.6290322580645
 r_47: + xp_22_4 + xp_22_1 + xp_13_1 <= 30
 r_48: + xp_13_0 <= 30
 r_49: 0 xp_0_0 <= 30
 r_50: 0 xp_0_0 <= 28.6290322580645
 r_51: + xp_1_1 <= 30
 r_52: + xp_8_0 <= 30
 r_53: + xp_1_0 <= 30
 r_54: + xp_0_5 + xp_0_4 <= 28.6290322580645
 r_55: 0 xp_0_0 <= 30
 r_56: 0 xp_0_0 <= 30
 r_57: + xp_22_2 <= 28.6290322580645
 r_58: + xp_22_3 + xp_6_1 + xp_5_0 <= 28.6290322580645
 r_59: + xp_22_0 + xp_17_1 <= 28.6290322580645
 r_60: + xp_23_1 + xp_22_4 + xp_6_0 <= 28.6290322580645
 r_61: + xp_23_0 + xp_22_1 <= 28.6290322580645
 r_62: + xp_17_0 <= 28.6290322580645
 r_63: + xp_23_2 + xp_17_3 + xp_11_2 + xp_5_1 <= 28.6290322580645
 r_64: + xp_17_2 + xp_6_2 + xp_5_2 <= 28.6290322580645
 r_65: + xp_20_1 + xp_19_2 + xp_14_1 + xp_11_4 + xp_7_1 + xp_2_2
 + xp_0_6 <= 29.4574468085106
 r_66: + xp_21_3 + xp_20_2 + xp_7_0 <= 30
 r_67: + xp_20_3 + xp_19_1 + xp_10_0 <= 30
 r_68: + xp_20_0 <= 30

Bounds
 0 <= xp_0_0 <= 27.6315803310255
 0 <= xp_0_1 <= 7.0657722010316
 0 <= xp_0_2 <= 13.1447423075507
 0 <= xp_0_3 <= 5.72367648510759
 0 <= xp_0_4 <= 1.34209571592401
 0 <= xp_0_5 <= 4.38158076918358
 0 <= xp_0_6 <= 1.34209571592401
 0 <= xp_1_0 <= 18.2499849565727
 0 <= xp_1_1 <= 15.6973636320617
 0 <= xp_2_0 <= 23.1052671858742
 0 <= xp_2_1 <= 4.38158076918358
 0 <= xp_2_2 <= 1.19736333995634
 0 <= xp_2_3 <= 3.59209001986901
 0 <= xp_2_4 <= 1.19736333995634
 0 <= xp_3_0 <= 19.9342032621161
 0 <= xp_3_1 <= 9.56578826682775
 0 <= xp_3_2 <= 1.60525345692117
 0 <= xp_4_0 <= 25.2631431357279
 0 <= xp_5_0 <= 12.631571567864
 0 <= xp_5_1 <= 4.21052385595466
 0 <= xp_5_2 <= 8.42104771190931
 0 <= xp_6_0 <= 15.1578858814368
 0 <= xp_6_1 <= 3.78947147035919
 0 <= xp_6_2 <= 3.78947147035919
 0 <= xp_7_0 <= 18.1578841288045
 0 <= xp_7_1 <= 3.63157682576089
 0 <= xp_8_0 <= 19.5789359301891
 0 <= xp_9_0 <= 18.1578841288045
 0 <= xp_10_0 <= 18.1578841288045
 0 <= xp_11_0 <= 26.2894846151015
 0 <= xp_11_1 <= 11.2105022401562
 0 <= xp_11_2 <= 13.9605225414804
 0 <= xp_11_3 <= 5.19736100311326
 0 <= xp_11_4 <= 0.815780233929676
 0 <= xp_12_0 <= 17.0526216166164
 0 <= xp_13_0 <= 13.8157814023512
 0 <= xp_13_1 <= 2.76315628047024
 0 <= xp_14_0 <= 10.5263096398866
 0 <= xp_14_1 <= 5.26315481994332
 0 <= xp_15_0 <= 15.6315698152317
 0 <= xp_16_0 <= 14.9999912368385
 0 <= xp_17_0 <= 29.2236890456391
 0 <= xp_17_1 <= 8.80261329161289
 0 <= xp_17_2 <= 2.93420443053763
 0 <= xp_17_3 <= 2.93420443053763
 0 <= xp_18_0 <= 22.7631533594164
 0 <= xp_18_1 <= 5.23683028268206
 0 <= xp_18_2 <= 4.38158076918358
 0 <= xp_18_3 <= 9.61841105186565
 0 <= xp_19_0 <= 28.8289524341434
 0 <= xp_19_1 <= 5.07893563808376
 0 <= xp_19_2 <= 2.53946781904188
 0 <= xp_19_3 <= 5.07893563808376
 0 <= xp_20_0 <= 26.7236817430045
 0 <= xp_20_1 <= 9.19735866627018
 0 <= xp_20_2 <= 2.4078889485433
 0 <= xp_20_3 <= 2.4078889485433
 0 <= xp_21_0 <= 21.7631539436272
 0 <= xp_21_1 <= 8.61841163607642
 0 <= xp_21_2 <= 2.11841543344642
 0 <= xp_21_3 <= 4.38158076918358
 0 <= xp_21_4 <= 2.11841543344642
 0 <= xp_22_0 <= 16.8552576924492
 0 <= xp_22_1 <= 4.38158076918358
 0 <= xp_22_2 <= 1.85525769244925
 0 <= xp_22_3 <= 12.4736769232657
 0 <= xp_22_4 <= 1.85525769244925
 0 <= xp_23_0 <= 25.6184192308164
 0 <= xp_23_1 <= 9.94735384653134
 0 <= xp_23_2 <= 1.85525769244925

End
